50, 665
17, 3
6, 26
41, 28
7, 30
38, 21
14, 37
11, 37
4, 33
42, 9
18, 46
42, 35
23, 21
47, 36
48, 18
4, 36
30, 18
21, 13
33, 1
37, 42
3, 9
48, 27
42, 29
1, 35
7, 38
49, 24
46, 23
44, 34
36, 13
44, 45
39, 31
37, 22
33, 10
34, 17
15, 46
50, 6
11, 28
12, 22
13, 10
27, 21
17, 49
8, 19
14, 32
50, 40
42, 49
48, 20
27, 33
26, 13
34, 25
25, 34
18, 36
